95
0 13 24 11 68 55 17 83 89 76 
18 25 28 88 36 70 27 91 29 71 
94 52 20 78 31 9 63 44 60 81 
75 33 16 58 6 40 86 87 82 72 
80 3 79 50 1 26 48 46 62 90 
4 84 22 59 35 77 93 51 66 2 
5 30 14 7 15 53 23 69 12 47 
45 32 37 67 56 61 85 54 57 41 
39 10 34 21 43 8 64 19 49 73 
65 74 92 38 42 
